NAME : BATATA1
COMMENT : (Augerat et al, No of trucks: 8, Optimal value: 450)
TYPE : CVRP
DIMENSION : 16
EDGE_WEIGHT_TYPE : EUC_2D
CAPACITY : 100000
NODE_COORD_SECTION
0 0 -20
1 -40 80
2 40 60
3 -80 60
4 -80 -20
5 100 40
6 60 -20
7 20 -20
8 -100 20
9 -40 40
10 0 0
20 0 0
30 0 0
DEMAND_SECTION
1 0
2 19
3 30
4 16
5 23
6 11
7 31
8 15
9 28
DEPOT_SECTION
 1
 -1
EOF
